;; produced by cvc4_16.drv ;;
(set-logic AUFBVFPDTNIRA)
(set-info :smt-lib-version 2.6)
;;; generated by SMT-LIB2 driver
;;; SMT-LIB2 driver: bit-vectors, common part
;;; SMT-LIB2: integer arithmetic
(declare-sort string 0)

(declare-datatypes ((tuple0 0))
(((Tuple0))))
(declare-sort us_private 0)

(declare-fun private__bool_eq (us_private us_private) Bool)

(declare-const us_null_ext__ us_private)

(declare-sort us_type_of_heap 0)

(declare-datatypes ((us_type_of_heap__ref 0))
(((us_type_of_heap__refqtmk (us_type_of_heap__content us_type_of_heap)))))
(declare-sort us_image 0)

(declare-datatypes ((int__ref 0))
(((int__refqtmk (int__content Int)))))
(declare-datatypes ((bool__ref 0))
(((bool__refqtmk (bool__content Bool)))))
(declare-datatypes ((us_fixed__ref 0))
(((us_fixed__refqtmk (us_fixed__content Int)))))
(declare-datatypes ((real__ref 0))
(((real__refqtmk (real__content Real)))))
(declare-datatypes ((us_private__ref 0))
(((us_private__refqtmk (us_private__content us_private)))))
(define-fun int__ref___projection ((a int__ref)) Int (int__content a))

(define-fun us_fixed__ref___projection ((a us_fixed__ref)) Int (us_fixed__content
                                                               a))

(define-fun bool__ref___projection ((a bool__ref)) Bool (bool__content a))

(define-fun real__ref___projection ((a real__ref)) Real (real__content a))

(define-fun us_private__ref___projection ((a us_private__ref)) us_private 
  (us_private__content a))

(declare-const e Int)

(declare-const attr__ATTRIBUTE_ADDRESS Int)

(declare-const attr__ATTRIBUTE_ADDRESS1 Int)

(declare-sort element 0)

(declare-fun elementqtint (element) Int)

;; element'axiom
  (assert
  (forall ((i element))
  (and (<= 1 (elementqtint i)) (<= (elementqtint i) 2147483647))))

(define-fun in_range ((x Int)) Bool (and (<= 1 x) (<= x 2147483647)))

(declare-fun attr__ATTRIBUTE_IMAGE (Int) us_image)

(declare-fun attr__ATTRIBUTE_VALUE__pre_check (us_image) Bool)

(declare-fun attr__ATTRIBUTE_VALUE (us_image) Int)

(declare-fun user_eq (element element) Bool)

(declare-const dummy element)

(declare-datatypes ((element__ref 0))
(((element__refqtmk (element__content element)))))
(define-fun element__ref_element__content__projection ((a element__ref)) element 
  (element__content a))

(define-fun to_rep ((x element)) Int (elementqtint x))

(declare-fun of_rep (Int) element)

;; inversion_axiom
  (assert
  (forall ((x element)) (! (= (of_rep (to_rep x)) x) :pattern ((to_rep x)) )))

;; range_axiom
  (assert
  (forall ((x element)) (! (in_range (to_rep x)) :pattern ((to_rep x)) )))

;; coerce_axiom
  (assert
  (forall ((x Int))
  (! (=> (in_range x) (= (to_rep (of_rep x)) x)) :pattern ((to_rep
                                                           (of_rep x))) )))

(declare-datatypes ((map__ref 0))
(((map__refqtmk (map__content (Array Int element))))))
(declare-fun slide ((Array Int element) Int Int) (Array Int element))

;; slide_eq
  (assert
  (forall ((a (Array Int element)))
  (forall ((first Int))
  (! (= (slide a first first) a) :pattern ((slide a first first)) ))))

;; slide_def
  (assert
  (forall ((a (Array Int element)))
  (forall ((old_first Int))
  (forall ((new_first Int))
  (forall ((i Int))
  (! (= (select (slide a old_first new_first) i) (select a (- i (- new_first old_first)))) :pattern ((select 
  (slide a old_first new_first) i)) ))))))

(define-fun bool_eq ((a (Array Int element)) (a__first Int) (a__last Int)
  (b (Array Int element)) (b__first Int)
  (b__last Int)) Bool (ite (and
                           (ite (<= a__first a__last)
                           (and (<= b__first b__last)
                           (= (- a__last a__first) (- b__last b__first)))
                           (< b__last b__first))
                           (forall ((temp___idx_154 Int))
                           (=>
                           (and (<= a__first temp___idx_154)
                           (<= temp___idx_154 a__last))
                           (= (to_rep (select a temp___idx_154)) (to_rep
                                                                 (select b (+ (- b__first a__first) temp___idx_154)))))))
                      true false))

;; bool_eq_rev
  (assert
  (forall ((a (Array Int element)) (b (Array Int element)))
  (forall ((a__first Int) (a__last Int) (b__first Int) (b__last Int))
  (=> (= (bool_eq b b__first b__last a a__first a__last) true)
  (and
  (ite (<= a__first a__last)
  (and (<= b__first b__last) (= (- a__last a__first) (- b__last b__first)))
  (< b__last b__first))
  (forall ((temp___idx_154 Int))
  (=> (and (<= a__first temp___idx_154) (<= temp___idx_154 a__last))
  (= (to_rep (select a temp___idx_154)) (to_rep
                                        (select b (+ (- b__first a__first) temp___idx_154)))))))))))

(declare-const attr__ATTRIBUTE_ADDRESS2 Int)

(define-fun dynamic_invariant ((temp___expr_167 Int)
  (temp___is_init_163 Bool) (temp___skip_constant_164 Bool)
  (temp___do_toplevel_165 Bool)
  (temp___do_typ_inv_166 Bool)) Bool (=>
                                     (or (= temp___is_init_163 true)
                                     (<= 1 2147483647)) (in_range
                                     temp___expr_167)))

(declare-sort length_type 0)

(declare-fun length_typeqtint (length_type) Int)

;; length_type'axiom
  (assert
  (forall ((i length_type))
  (and (<= 0 (length_typeqtint i)) (<= (length_typeqtint i) 100))))

(define-fun in_range1 ((x Int)) Bool (and (<= 0 x) (<= x 100)))

(declare-fun attr__ATTRIBUTE_IMAGE1 (Int) us_image)

(declare-fun attr__ATTRIBUTE_VALUE__pre_check1 (us_image) Bool)

(declare-fun attr__ATTRIBUTE_VALUE1 (us_image) Int)

(declare-fun user_eq1 (length_type length_type) Bool)

(declare-const dummy1 length_type)

(declare-datatypes ((length_type__ref 0))
(((length_type__refqtmk (length_type__content length_type)))))
(define-fun length_type__ref_length_type__content__projection ((a length_type__ref)) length_type 
  (length_type__content a))

(define-fun dynamic_invariant1 ((temp___expr_180 Int)
  (temp___is_init_176 Bool) (temp___skip_constant_177 Bool)
  (temp___do_toplevel_178 Bool)
  (temp___do_typ_inv_179 Bool)) Bool (=>
                                     (or (= temp___is_init_176 true)
                                     (<= 0 100)) (in_range1 temp___expr_180)))

(declare-sort tTb_contentSP1 0)

(declare-fun tTb_contentSP1qtint (tTb_contentSP1) Int)

;; tTb_contentSP1'axiom
  (assert
  (forall ((i tTb_contentSP1))
  (and (<= 1 (tTb_contentSP1qtint i)) (<= (tTb_contentSP1qtint i) 100))))

(define-fun in_range2 ((x Int)) Bool (and (<= 1 x) (<= x 100)))

(declare-fun attr__ATTRIBUTE_IMAGE2 (Int) us_image)

(declare-fun attr__ATTRIBUTE_VALUE__pre_check2 (us_image) Bool)

(declare-fun attr__ATTRIBUTE_VALUE2 (us_image) Int)

(declare-fun user_eq2 (tTb_contentSP1 tTb_contentSP1) Bool)

(declare-const dummy2 tTb_contentSP1)

(declare-datatypes ((tTb_contentSP1__ref 0))
(((tTb_contentSP1__refqtmk (tTb_contentSP1__content tTb_contentSP1)))))
(define-fun tTb_contentSP1__ref_tTb_contentSP1__content__projection ((a tTb_contentSP1__ref)) tTb_contentSP1 
  (tTb_contentSP1__content a))

(assert
;; defqtvc
 ;; File "stack.ads", line 25, characters 0-0
  (not
  (forall ((b_top Int))
  (=> (dynamic_invariant1 b_top true false true true)
  (=> (dynamic_invariant e true false true true)
  (let ((o (+ b_top 1)))
  (=> (in_range1 o)
  (forall ((b_top1 Int))
  (=> (= b_top1 o)
  (forall ((o1 element)) (=> (= (to_rep o1) e) (<= 1 b_top1))))))))))))
(check-sat)
